clasp version 3.1.4
Reading from stdin
Solving...
Answer: 1
lion(apollo) lion(helios) baby_lion(helios) dangerous(apollo) -dangerous(helios)
SATISFIABLE

Models       : 1     
Calls        : 1
Time         : 0.000s (Solving: 0.00s 1st Model: 0.00s Unsat: 0.00s)
CPU Time     : 0.000s
